57
45
22
122
29
51
0
83
37
229
36
145
81
44
102
150
28
69
0
86
40
62
42
50
43
181
89
75
57
87
33
20
33
99
53
17
30
0
17
29
65
46
41
282
26
23
0
72
36
87
27
85
75
198
33
55
0
72
55
32
55
35
72
164
87
24
17
69
41
32
62
61
24
34
131
63
17
59
74
41
72
95
15
54
59
16
0
0
0
75
19
192
45
96
47
136
132
88
101
241
